# geometry file created by comatsci
atom               0.000000E+00               0.000000E+00               0.000000E+00   Ti
atom               2.296865E+00               2.296865E+00               1.479060E+00   Ti
atom               1.402466E+00               1.402466E+00               0.000000E+00   O
atom              -1.402466E+00              -1.402466E+00               0.000000E+00   O
atom               3.699331E+00               8.943992E-01               1.479060E+00   O
atom               8.943992E-01               3.699331E+00               1.479060E+00   O
lattice_vector               4.593730E+00               0.000000E+00               0.000000E+00   
lattice_vector               0.000000E+00               4.593730E+00               0.000000E+00   
lattice_vector               0.000000E+00               0.000000E+00               2.958120E+00   
