NumberOfSpecies 2
%block ChemicalSpeciesLabel
    1	  6	C
    2	  1	H
%endblock ChemicalSpeciesLabel

NumberOfAtoms 6

AtomicCoordinatesFormat Ang
%block AtomicCoordinatesAndAtomicSpecies
 0.00000000000000000E+00  0.00000000000000000E+00  0.00000000000000000E+00 1
 0.00000000000000000E+00  0.00000000000000000E+00  1.33499999999999996E+00 1
 9.43101999999999996E-01  0.00000000000000000E+00 -5.44499999999999984E-01 2
-9.43101999999999996E-01  0.00000000000000000E+00  1.87949999999999995E+00 2
 9.43101999999999996E-01  0.00000000000000000E+00  1.87949999999999995E+00 2
-9.43101999999999996E-01  0.00000000000000000E+00 -5.44499999999999984E-01 2
%endblock AtomicCoordinatesAndAtomicSpecies

