NumberOfSpecies 2
%block ChemicalSpeciesLabel
    1	 22	Ti
    2	  8	O
%endblock ChemicalSpeciesLabel

NumberOfAtoms 6

AtomicCoordinatesFormat Ang
%block AtomicCoordinatesAndAtomicSpecies
 0.00000000000000000E+00  0.00000000000000000E+00  0.00000000000000000E+00 1
 2.29686499999999993E+00  2.29686499999999993E+00  1.47906000000000004E+00 1
 1.40246577000000006E+00  1.40246577000000006E+00  0.00000000000000000E+00 2
-1.40246577000000006E+00 -1.40246577000000006E+00  0.00000000000000000E+00 2
 3.69933076999999999E+00  8.94399229999999990E-01  1.47906000000000004E+00 2
 8.94399229999999990E-01  3.69933076999999999E+00  1.47906000000000004E+00 2
%endblock AtomicCoordinatesAndAtomicSpecies

LatticeConstant  1.0 Ang

%block LatticeVectors
 4.59372999999999987E+00  0.00000000000000000E+00  0.00000000000000000E+00
 0.00000000000000000E+00  4.59372999999999987E+00  0.00000000000000000E+00
 0.00000000000000000E+00  0.00000000000000000E+00  2.95812000000000008E+00
%endblock LatticeVectors
